Welcome to the CBC MILP Solver 
Version: Trunk
Build Date: Apr 16 2020 

Starting solution of the Linear programming relaxation problem using Primal Simplex

Using Python-MIP package version 1.8.1
Machines:  3 Jobs:  3
Order: 
Job  0 : machine 1 ( 7 ) machine 2 ( 7 ) machine 0 ( 1 ) 
Job  1 : machine 1 ( 4 ) machine 0 ( 3 ) machine 2 ( 7 ) 
Job  2 : machine 1 ( 7 ) machine 2 ( 6 ) machine 0 ( 2 ) 
K:  33
Job  0 , e: machine  0 ( 14 ) machine  1 ( 0 ) machine  2 ( 7 ) 
Job  1 , e: machine  0 ( 4 ) machine  1 ( 0 ) machine  2 ( 7 ) 
Job  2 , e: machine  0 ( 13 ) machine  1 ( 0 ) machine  2 ( 7 ) 
Job  0 , f: machine  0 ( 0 ) machine  1 ( 8 ) machine  2 ( 1 ) 
Job  1 , f: machine  0 ( 7 ) machine  1 ( 10 ) machine  2 ( 0 ) 
Job  2 , f: machine  0 ( 0 ) machine  1 ( 8 ) machine  2 ( 2 ) 
EST and LST:
Job: 0 Machine: 0 EST: 14 LST: 32
Job: 0 Machine: 1 EST: 0 LST: 18
Job: 0 Machine: 2 EST: 7 LST: 25
Job: 1 Machine: 0 EST: 4 LST: 23
Job: 1 Machine: 1 EST: 0 LST: 19
Job: 1 Machine: 2 EST: 7 LST: 26
Job: 2 Machine: 0 EST: 13 LST: 31
Job: 2 Machine: 1 EST: 0 LST: 18
Job: 2 Machine: 2 EST: 7 LST: 25
Order:
Job: 0 Machine: 0 = 2 
Job: 0 Machine: 1 = 0 
Job: 0 Machine: 2 = 1 
Job: 1 Machine: 0 = 1 
Job: 1 Machine: 1 = 0 
Job: 1 Machine: 2 = 2 
Job: 2 Machine: 0 = 2 
Job: 2 Machine: 1 = 0 
Job: 2 Machine: 2 = 1 
Distances:
Job 0, Machine 1 -> Machine 2: distance 7
Job 0, Machine 1 -> Machine 0: distance 14
Job 0, Machine 2 -> Machine 0: distance 7
Job 1, Machine 1 -> Machine 0: distance 4
Job 1, Machine 1 -> Machine 2: distance 7
Job 1, Machine 0 -> Machine 2: distance 3
Job 2, Machine 1 -> Machine 2: distance 7
Job 2, Machine 1 -> Machine 0: distance 13
Job 2, Machine 2 -> Machine 0: distance 6
McCormic linearization
[(0, 1), (1, 2), (0, 2), (2, 1), (2, 0), (1, 0), (1, 1)]
obj:  0.0
solutions:  1
+ 0.14285714285714285x(0,1) + 0.14285714285714285x(2,1) 
C:  18.499999999999996
x(0,0) = 17.50	 x(0,1) = 3.50	 x(0,2) = 10.50	 
x(1,0) = 8.50	 x(1,1) = 4.50	 x(1,2) = 11.50	 
x(2,0) = 16.50	 x(2,1) = 3.50	 x(2,2) = 10.50	 
y(0,1,0) = 0.00	 y(1,0,0) = 1.00	 
y(0,2,0) = 0.90	 y(2,0,0) = 0.10	 
y(1,2,0) = 0.59	 y(2,1,0) = 0.41	 
y(0,1,1) = 0.22	 y(1,0,1) = 0.78	 
y(0,2,1) = 0.72	 y(2,0,1) = 0.28	 
y(1,2,1) = 0.36	 y(2,1,1) = 0.64	 
y(0,1,2) = 0.76	 y(1,0,2) = 0.24	 
y(0,2,2) = 0.42	 y(2,0,2) = 0.58	 
y(1,2,2) = 0.50	 y(2,1,2) = 0.50	 
obj:  0.7948717948717947
solutions:  1
+ 0.025641025641025647x(1,2) + 0.02197802197802198x(2,2) + 0.025641025641025637x(0,2) 
[(1, 2), (2, 1), (2, 0), (1, 1), (2, 2), (1, 0), (0, 2)]
cliques:  1 mip: 10
C:  22.14
x(0,0) = 18.74	 x(0,1) = 4.74	 x(0,2) = 11.74	 
x(1,0) = 8.13	 x(1,1) = 3.81	 x(1,2) = 15.14	 
x(2,0) = 20.14	 x(2,1) = 2.26	 x(2,2) = 14.14	 
y(0,1,0) = 0.00	 y(1,0,0) = 1.00	 
y(0,2,0) = 0.97	 y(2,0,0) = 0.03	 
y(1,2,0) = 0.62	 y(2,1,0) = 0.38	 
y(0,1,1) = 0.13	 y(1,0,1) = 0.87	 
y(0,2,1) = 0.34	 y(2,0,1) = 0.66	 
y(1,2,1) = 0.41	 y(2,1,1) = 0.59	 
y(0,1,2) = 0.40	 y(1,0,2) = 0.60	 
y(0,2,2) = 0.35	 y(2,0,2) = 0.65	 
y(1,2,2) = 0.69	 y(2,1,2) = 0.31	 
obj:  1.0
erro
[(1, 2), (2, 1), (2, 0), (1, 1), (2, 2), (1, 0), (0, 2)]
cliques:  0 mip: 26
C:  23.705234375
x(0,0) = 22.63	 x(0,1) = 4.45	 x(0,2) = 11.45	 
x(1,0) = 9.51	 x(1,1) = 4.21	 x(1,2) = 14.37	 
x(2,0) = 21.37	 x(2,1) = 2.55	 x(2,2) = 15.37	 
y(0,1,0) = 0.00	 y(1,0,0) = 1.00	 
y(0,2,0) = 0.04	 y(2,0,0) = 0.96	 
y(1,2,0) = 0.50	 y(2,1,0) = 0.50	 
y(0,1,1) = 0.16	 y(1,0,1) = 0.84	 
y(0,2,1) = 0.55	 y(2,0,1) = 0.45	 
y(1,2,1) = 0.21	 y(2,1,1) = 0.79	 
y(0,1,2) = 0.71	 y(1,0,2) = 0.29	 
y(0,2,2) = 0.88	 y(2,0,2) = 0.12	 
y(1,2,2) = 0.29	 y(2,1,2) = 0.71	 
obj:  1.0000000000000002
erro
[(0, 1), (1, 2), (2, 1), (2, 0), (2, 2), (1, 0), (0, 2)]
cliques:  0 mip: 42
C:  24.59082181135493
x(0,0) = 23.47	 x(0,1) = 6.65	 x(0,2) = 13.65	 
x(1,0) = 8.13	 x(1,1) = 4.13	 x(1,2) = 11.13	 
x(2,0) = 22.59	 x(2,1) = 0.35	 x(2,2) = 16.59	 
y(0,1,0) = 0.00	 y(1,0,0) = 1.00	 
y(0,2,0) = 0.06	 y(2,0,0) = 0.94	 
y(1,2,0) = 0.78	 y(2,1,0) = 0.22	 
y(0,1,1) = 0.06	 y(1,0,1) = 0.94	 
y(0,2,1) = 0.42	 y(2,0,1) = 0.58	 
y(1,2,1) = 0.41	 y(2,1,1) = 0.59	 
y(0,1,2) = 0.19	 y(1,0,2) = 0.81	 
y(0,2,2) = 0.77	 y(2,0,2) = 0.23	 
y(1,2,2) = 0.81	 y(2,1,2) = 0.19	 
obj:  0.6240554436155215
solutions:  1
+ 0.06666666666666667x(0,1) + 0.06666666666666667x(2,1) + 0.038095238095238085x(1,1) 
[(0, 1), (2, 1), (2, 0), (1, 1), (2, 2), (1, 0), (0, 2)]
cliques:  1 mip: 44
C:  24.999998102845453
x(0,0) = 24.00	 x(0,1) = 5.55	 x(0,2) = 12.75	 
x(1,0) = 10.25	 x(1,1) = 6.25	 x(1,2) = 13.25	 
x(2,0) = 21.17	 x(2,1) = 5.88	 x(2,2) = 15.17	 
y(0,1,0) = 0.00	 y(1,0,0) = 1.00	 
y(0,2,0) = 0.00	 y(2,0,0) = 1.00	 
y(1,2,0) = 0.45	 y(2,1,0) = 0.55	 
y(0,1,1) = 0.23	 y(1,0,1) = 0.77	 
y(0,2,1) = 0.64	 y(2,0,1) = 0.36	 
y(1,2,1) = 0.38	 y(2,1,1) = 0.62	 
y(0,1,2) = 0.41	 y(1,0,2) = 0.59	 
y(0,2,2) = 0.78	 y(2,0,2) = 0.22	 
y(1,2,2) = 0.59	 y(2,1,2) = 0.41	 
obj:  1.0000000000000004
erro
[(1, 2), (2, 1), (2, 0), (1, 1), (2, 2), (1, 0), (0, 2)]
cliques:  0 mip: 41
C:  24.999998102845453
x(0,0) = 24.00	 x(0,1) = 3.47	 x(0,2) = 12.56	 
x(1,0) = 9.90	 x(1,1) = 4.80	 x(1,2) = 12.90	 
x(2,0) = 21.80	 x(2,1) = 8.80	 x(2,2) = 15.80	 
y(0,1,0) = 0.00	 y(1,0,0) = 1.00	 
y(0,2,0) = 0.00	 y(2,0,0) = 1.00	 
y(1,2,0) = 0.89	 y(2,1,0) = 0.11	 
y(0,1,1) = 0.40	 y(1,0,1) = 0.60	 
y(0,2,1) = 0.93	 y(2,0,1) = 0.07	 
y(1,2,1) = 1.00	 y(2,1,1) = 0.00	 
y(0,1,2) = 0.36	 y(1,0,2) = 0.64	 
y(0,2,2) = 0.85	 y(2,0,2) = 0.15	 
y(1,2,2) = 0.64	 y(2,1,2) = 0.36	 
obj:  1.0000000000000002
erro
[(0, 1), (1, 2), (1, 1), (2, 2), (0, 2)]
cliques:  0 mip: 37
C:  25.25461453168995
x(0,0) = 24.25	 x(0,1) = 8.89	 x(0,2) = 15.89	 
x(1,0) = 7.35	 x(1,1) = 0.00	 x(1,2) = 10.35	 
x(2,0) = 20.88	 x(2,1) = 6.11	 x(2,2) = 14.88	 
y(0,1,0) = 0.00	 y(1,0,0) = 1.00	 
y(0,2,0) = 0.00	 y(2,0,0) = 1.00	 
y(1,2,0) = 1.00	 y(2,1,0) = 0.00	 
y(0,1,1) = 0.36	 y(1,0,1) = 0.64	 
y(0,2,1) = 0.19	 y(2,0,1) = 0.81	 
y(1,2,1) = 1.00	 y(2,1,1) = 0.00	 
y(0,1,2) = 0.06	 y(1,0,2) = 0.94	 
y(0,2,2) = 0.55	 y(2,0,2) = 0.45	 
y(1,2,2) = 0.90	 y(2,1,2) = 0.10	 
obj:  1.0000000000000002
erro
[(0, 1), (1, 2), (0, 2), (2, 1), (2, 2), (1, 1)]
cliques:  0 mip: 34
C:  25.259152579018473
x(0,0) = 24.26	 x(0,1) = 5.13	 x(0,2) = 15.88	 
x(1,0) = 7.35	 x(1,1) = 3.35	 x(1,2) = 10.35	 
x(2,0) = 20.95	 x(2,1) = 7.95	 x(2,2) = 14.95	 
y(0,1,0) = 0.00	 y(1,0,0) = 1.00	 
y(0,2,0) = 0.00	 y(2,0,0) = 1.00	 
y(1,2,0) = 1.00	 y(2,1,0) = 0.00	 
y(0,1,1) = 0.45	 y(1,0,1) = 0.55	 
y(0,2,1) = 0.73	 y(2,0,1) = 0.27	 
y(1,2,1) = 1.00	 y(2,1,1) = 0.00	 
y(0,1,2) = 0.06	 y(1,0,2) = 0.94	 
y(0,2,2) = 0.56	 y(2,0,2) = 0.44	 
y(1,2,2) = 0.44	 y(2,1,2) = 0.56	 
obj:  0.9999999999999998
erro
[(0, 1), (1, 2), (2, 1), (1, 1), (2, 2), (0, 2)]
cliques:  0 mip: 36
C:  25.26116273560901
x(0,0) = 24.26	 x(0,1) = 4.18	 x(0,2) = 11.18	 
x(1,0) = 13.00	 x(1,1) = 8.24	 x(1,2) = 16.60	 
x(2,0) = 19.11	 x(2,1) = 6.11	 x(2,2) = 13.11	 
y(0,1,0) = 0.00	 y(1,0,0) = 1.00	 
y(0,2,0) = 0.00	 y(2,0,0) = 1.00	 
y(1,2,0) = 1.00	 y(2,1,0) = 0.00	 
y(0,1,1) = 0.82	 y(1,0,1) = 0.18	 
y(0,2,1) = 0.80	 y(2,0,1) = 0.20	 
y(1,2,1) = 0.73	 y(2,1,1) = 0.27	 
y(0,1,2) = 0.79	 y(1,0,2) = 0.21	 
y(0,2,2) = 0.57	 y(2,0,2) = 0.43	 
y(1,2,2) = 0.21	 y(2,1,2) = 0.79	 
obj:  1.000552959859289
erro
[(1, 2), (0, 2), (2, 1), (2, 2), (1, 1)]
cliques:  0 mip: 45
C:  25.4697699520082
x(0,0) = 24.47	 x(0,1) = 2.65	 x(0,2) = 9.65	 
x(1,0) = 10.30	 x(1,1) = 6.30	 x(1,2) = 15.85	 
x(2,0) = 22.47	 x(2,1) = 8.75	 x(2,2) = 15.75	 
y(0,1,0) = 0.00	 y(1,0,0) = 1.00	 
y(0,2,0) = 0.00	 y(2,0,0) = 1.00	 
y(1,2,0) = 1.00	 y(2,1,0) = 0.00	 
y(0,1,1) = 0.87	 y(1,0,1) = 0.13	 
y(0,2,1) = 0.62	 y(2,0,1) = 0.38	 
y(1,2,1) = 0.93	 y(2,1,1) = 0.07	 
y(0,1,2) = 0.97	 y(1,0,2) = 0.03	 
y(0,2,2) = 0.96	 y(2,0,2) = 0.04	 
y(1,2,2) = 0.33	 y(2,1,2) = 0.67	 
obj:  1.0
erro
[(0, 1), (1, 2), (2, 1), (2, 2), (1, 1)]
cliques:  0 mip: 36
C:  25.99999746103864
x(0,0) = 25.00	 x(0,1) = 4.73	 x(0,2) = 11.73	 
x(1,0) = 15.73	 x(1,1) = 11.73	 x(1,2) = 18.73	 
x(2,0) = 23.00	 x(2,1) = 3.56	 x(2,2) = 10.56	 
y(0,1,0) = 0.00	 y(1,0,0) = 1.00	 
y(0,2,0) = 0.00	 y(2,0,0) = 1.00	 
y(1,2,0) = 1.00	 y(2,1,0) = 0.00	 
y(0,1,1) = 1.00	 y(1,0,1) = 0.00	 
y(0,2,1) = 0.32	 y(2,0,1) = 0.68	 
y(1,2,1) = 0.47	 y(2,1,1) = 0.53	 
y(0,1,2) = 1.00	 y(1,0,2) = 0.00	 
y(0,2,2) = 0.20	 y(2,0,2) = 0.80	 
y(1,2,2) = 0.03	 y(2,1,2) = 0.97	 
obj:  1.0000000000000007
erro
[(0, 1), (1, 2), (2, 1), (1, 1), (2, 2), (0, 2)]
cliques:  0 mip: 15
C:  25.999997461038635
x(0,0) = 25.00	 x(0,1) = 4.70	 x(0,2) = 11.70	 
x(1,0) = 15.70	 x(1,1) = 11.70	 x(1,2) = 18.70	 
x(2,0) = 23.00	 x(2,1) = 4.20	 x(2,2) = 11.20	 
y(0,1,0) = 0.00	 y(1,0,0) = 1.00	 
y(0,2,0) = 0.00	 y(2,0,0) = 1.00	 
y(1,2,0) = 1.00	 y(2,1,0) = 0.00	 
y(0,1,1) = 1.00	 y(1,0,1) = 0.00	 
y(0,2,1) = 0.33	 y(2,0,1) = 0.67	 
y(1,2,1) = 0.50	 y(2,1,1) = 0.50	 
y(0,1,2) = 1.00	 y(1,0,2) = 0.00	 
y(0,2,2) = 0.23	 y(2,0,2) = 0.77	 
y(1,2,2) = 0.04	 y(2,1,2) = 0.96	 
obj:  1.0254894621284742
erro
[(0, 1), (1, 2), (2, 1), (1, 1), (2, 2), (0, 2)]
cliques:  0 mip: 28
C:  25.999997461038667
x(0,0) = 25.00	 x(0,1) = 4.22	 x(0,2) = 13.74	 
x(1,0) = 12.10	 x(1,1) = 6.37	 x(1,2) = 15.10	 
x(2,0) = 23.00	 x(2,1) = 7.14	 x(2,2) = 14.14	 
y(0,1,0) = 0.00	 y(1,0,0) = 1.00	 
y(0,2,0) = -0.00	 y(2,0,0) = 1.00	 
y(1,2,0) = 1.00	 y(2,1,0) = 0.00	 
y(0,1,1) = 0.81	 y(1,0,1) = 0.19	 
y(0,2,1) = 0.40	 y(2,0,1) = 0.60	 
y(1,2,1) = 0.86	 y(2,1,1) = 0.14	 
y(0,1,2) = 0.52	 y(1,0,2) = 0.48	 
y(0,2,2) = 0.51	 y(2,0,2) = 0.49	 
y(1,2,2) = 0.49	 y(2,1,2) = 0.51	 
obj:  1.050160023211831
erro
[(1, 2), (0, 1), (2, 1), (2, 2), (0, 2)]
cliques:  0 mip: 33
C:  25.999997461038674
x(0,0) = 25.00	 x(0,1) = 6.89	 x(0,2) = 16.72	 
x(1,0) = 9.51	 x(1,1) = 5.51	 x(1,2) = 12.51	 
x(2,0) = 23.00	 x(2,1) = 4.96	 x(2,2) = 11.96	 
y(0,1,0) = 0.00	 y(1,0,0) = 1.00	 
y(0,2,0) = 0.00	 y(2,0,0) = 1.00	 
y(1,2,0) = 1.00	 y(2,1,0) = 0.00	 
y(0,1,1) = 0.66	 y(1,0,1) = 0.34	 
y(0,2,1) = 0.20	 y(2,0,1) = 0.80	 
y(1,2,1) = 0.80	 y(2,1,1) = 0.20	 
y(0,1,2) = 0.21	 y(1,0,2) = 0.79	 
y(0,2,2) = 0.06	 y(2,0,2) = 0.94	 
y(1,2,2) = 0.33	 y(2,1,2) = 0.67	 
obj:  1.0000000000000004
erro
[(0, 1), (1, 2), (2, 1), (1, 1), (2, 2), (0, 2)]
cliques:  0 mip: 40
C:  25.999997461038657
x(0,0) = 25.00	 x(0,1) = 4.55	 x(0,2) = 15.18	 
x(1,0) = 10.28	 x(1,1) = 5.19	 x(1,2) = 13.28	 
x(2,0) = 23.00	 x(2,1) = 7.49	 x(2,2) = 14.49	 
y(0,1,0) = 0.00	 y(1,0,0) = 1.00	 
y(0,2,0) = 0.00	 y(2,0,0) = 1.00	 
y(1,2,0) = 1.00	 y(2,1,0) = 0.00	 
y(0,1,1) = 0.75	 y(1,0,1) = 0.25	 
y(0,2,1) = 0.40	 y(2,0,1) = 0.60	 
y(1,2,1) = 0.93	 y(2,1,1) = 0.07	 
y(0,1,2) = 0.47	 y(1,0,2) = 0.53	 
y(0,2,2) = 0.48	 y(2,0,2) = 0.52	 
y(1,2,2) = 0.55	 y(2,1,2) = 0.45	 
obj:  1.0479113419263257
erro
[(1, 2), (0, 1), (2, 1), (2, 2), (0, 2)]
cliques:  0 mip: 36
C:  25.99999746103864
x(0,0) = 25.00	 x(0,1) = 1.67	 x(0,2) = 9.96	 
x(1,0) = 14.18	 x(1,1) = 8.15	 x(1,2) = 17.18	 
x(2,0) = 23.00	 x(2,1) = 8.67	 x(2,2) = 15.67	 
y(0,1,0) = 0.00	 y(1,0,0) = 1.00	 
y(0,2,0) = 0.00	 y(2,0,0) = 1.00	 
y(1,2,0) = 1.00	 y(2,1,0) = 0.00	 
y(0,1,1) = 0.98	 y(1,0,1) = 0.02	 
y(0,2,1) = 1.00	 y(2,0,1) = 0.00	 
y(1,2,1) = 0.85	 y(2,1,1) = 0.15	 
y(0,1,2) = 0.98	 y(1,0,2) = 0.02	 
y(0,2,2) = 0.92	 y(2,0,2) = 0.08	 
y(1,2,2) = 0.23	 y(2,1,2) = 0.77	 
obj:  1.0402669626117862
erro
[(1, 2), (2, 1), (1, 1), (2, 2), (0, 2)]
cliques:  0 mip: 24
C:  25.99999746103864
x(0,0) = 25.00	 x(0,1) = 1.67	 x(0,2) = 9.96	 
x(1,0) = 14.18	 x(1,1) = 8.15	 x(1,2) = 17.18	 
x(2,0) = 23.00	 x(2,1) = 8.67	 x(2,2) = 15.67	 
y(0,1,0) = 0.00	 y(1,0,0) = 1.00	 
y(0,2,0) = 0.00	 y(2,0,0) = 1.00	 
y(1,2,0) = 1.00	 y(2,1,0) = 0.00	 
y(0,1,1) = 0.98	 y(1,0,1) = 0.02	 
y(0,2,1) = 1.00	 y(2,0,1) = 0.00	 
y(1,2,1) = 0.85	 y(2,1,1) = 0.15	 
y(0,1,2) = 0.98	 y(1,0,2) = 0.02	 
y(0,2,2) = 0.92	 y(2,0,2) = 0.08	 
y(1,2,2) = 0.23	 y(2,1,2) = 0.77	 
obj:  1.0402669626117862
erro
[(1, 2), (2, 1), (1, 1), (2, 2), (0, 2)]
cliques:  0 mip: 24
C:  25.99999746103864
x(0,0) = 25.00	 x(0,1) = 1.67	 x(0,2) = 9.96	 
x(1,0) = 14.18	 x(1,1) = 8.15	 x(1,2) = 17.18	 
x(2,0) = 23.00	 x(2,1) = 8.67	 x(2,2) = 15.67	 
y(0,1,0) = 0.00	 y(1,0,0) = 1.00	 
y(0,2,0) = 0.00	 y(2,0,0) = 1.00	 
y(1,2,0) = 1.00	 y(2,1,0) = 0.00	 
y(0,1,1) = 0.98	 y(1,0,1) = 0.02	 
y(0,2,1) = 1.00	 y(2,0,1) = 0.00	 
y(1,2,1) = 0.85	 y(2,1,1) = 0.15	 
y(0,1,2) = 0.98	 y(1,0,2) = 0.02	 
y(0,2,2) = 0.92	 y(2,0,2) = 0.08	 
y(1,2,2) = 0.23	 y(2,1,2) = 0.77	 
obj:  1.0402669626117862
erro
[(1, 2), (2, 1), (1, 1), (2, 2), (0, 2)]
cliques:  0 mip: 24
C:  25.99999746103864
x(0,0) = 25.00	 x(0,1) = 1.67	 x(0,2) = 9.96	 
x(1,0) = 14.18	 x(1,1) = 8.15	 x(1,2) = 17.18	 
x(2,0) = 23.00	 x(2,1) = 8.67	 x(2,2) = 15.67	 
y(0,1,0) = 0.00	 y(1,0,0) = 1.00	 
y(0,2,0) = 0.00	 y(2,0,0) = 1.00	 
y(1,2,0) = 1.00	 y(2,1,0) = 0.00	 
y(0,1,1) = 0.98	 y(1,0,1) = 0.02	 
y(0,2,1) = 1.00	 y(2,0,1) = 0.00	 
y(1,2,1) = 0.85	 y(2,1,1) = 0.15	 
y(0,1,2) = 0.98	 y(1,0,2) = 0.02	 
y(0,2,2) = 0.92	 y(2,0,2) = 0.08	 
y(1,2,2) = 0.23	 y(2,1,2) = 0.77	 
obj:  1.0402669626117862
erro
[(1, 2), (2, 1), (1, 1), (2, 2), (0, 2)]
cliques:  0 mip: 24
C:  25.99999746103864
x(0,0) = 25.00	 x(0,1) = 1.67	 x(0,2) = 9.96	 
x(1,0) = 14.18	 x(1,1) = 8.15	 x(1,2) = 17.18	 
x(2,0) = 23.00	 x(2,1) = 8.67	 x(2,2) = 15.67	 
y(0,1,0) = 0.00	 y(1,0,0) = 1.00	 
y(0,2,0) = 0.00	 y(2,0,0) = 1.00	 
y(1,2,0) = 1.00	 y(2,1,0) = 0.00	 
y(0,1,1) = 0.98	 y(1,0,1) = 0.02	 
y(0,2,1) = 1.00	 y(2,0,1) = 0.00	 
y(1,2,1) = 0.85	 y(2,1,1) = 0.15	 
y(0,1,2) = 0.98	 y(1,0,2) = 0.02	 
y(0,2,2) = 0.92	 y(2,0,2) = 0.08	 
y(1,2,2) = 0.23	 y(2,1,2) = 0.77	 
obj:  1.0402669626117862
erro
[(1, 2), (2, 1), (1, 1), (2, 2), (0, 2)]
cliques:  0 mip: 24
C:  25.99999746103864
x(0,0) = 25.00	 x(0,1) = 1.67	 x(0,2) = 9.96	 
x(1,0) = 14.18	 x(1,1) = 8.15	 x(1,2) = 17.18	 
x(2,0) = 23.00	 x(2,1) = 8.67	 x(2,2) = 15.67	 
y(0,1,0) = 0.00	 y(1,0,0) = 1.00	 
y(0,2,0) = 0.00	 y(2,0,0) = 1.00	 
y(1,2,0) = 1.00	 y(2,1,0) = 0.00	 
y(0,1,1) = 0.98	 y(1,0,1) = 0.02	 
y(0,2,1) = 1.00	 y(2,0,1) = 0.00	 
y(1,2,1) = 0.85	 y(2,1,1) = 0.15	 
y(0,1,2) = 0.98	 y(1,0,2) = 0.02	 
y(0,2,2) = 0.92	 y(2,0,2) = 0.08	 
y(1,2,2) = 0.23	 y(2,1,2) = 0.77	 
obj:  1.0402669626117862
erro
[(1, 2), (2, 1), (1, 1), (2, 2), (0, 2)]
cliques:  0 mip: 24
C:  25.99999746103864
x(0,0) = 25.00	 x(0,1) = 1.67	 x(0,2) = 9.96	 
x(1,0) = 14.18	 x(1,1) = 8.15	 x(1,2) = 17.18	 
x(2,0) = 23.00	 x(2,1) = 8.67	 x(2,2) = 15.67	 
y(0,1,0) = 0.00	 y(1,0,0) = 1.00	 
y(0,2,0) = 0.00	 y(2,0,0) = 1.00	 
y(1,2,0) = 1.00	 y(2,1,0) = 0.00	 
y(0,1,1) = 0.98	 y(1,0,1) = 0.02	 
y(0,2,1) = 1.00	 y(2,0,1) = 0.00	 
y(1,2,1) = 0.85	 y(2,1,1) = 0.15	 
y(0,1,2) = 0.98	 y(1,0,2) = 0.02	 
y(0,2,2) = 0.92	 y(2,0,2) = 0.08	 
y(1,2,2) = 0.23	 y(2,1,2) = 0.77	 
obj:  1.0402669626117862
erro
[(1, 2), (2, 1), (1, 1), (2, 2), (0, 2)]
cliques:  0 mip: 24
C:  25.99999746103864
x(0,0) = 25.00	 x(0,1) = 1.67	 x(0,2) = 9.96	 
x(1,0) = 14.18	 x(1,1) = 8.15	 x(1,2) = 17.18	 
x(2,0) = 23.00	 x(2,1) = 8.67	 x(2,2) = 15.67	 
y(0,1,0) = 0.00	 y(1,0,0) = 1.00	 
y(0,2,0) = 0.00	 y(2,0,0) = 1.00	 
y(1,2,0) = 1.00	 y(2,1,0) = 0.00	 
y(0,1,1) = 0.98	 y(1,0,1) = 0.02	 
y(0,2,1) = 1.00	 y(2,0,1) = 0.00	 
y(1,2,1) = 0.85	 y(2,1,1) = 0.15	 
y(0,1,2) = 0.98	 y(1,0,2) = 0.02	 
y(0,2,2) = 0.92	 y(2,0,2) = 0.08	 
y(1,2,2) = 0.23	 y(2,1,2) = 0.77	 
obj:  1.0402669626117862
erro
[(1, 2), (2, 1), (1, 1), (2, 2), (0, 2)]
cliques:  0 mip: 24
C:  25.99999746103864
x(0,0) = 25.00	 x(0,1) = 1.67	 x(0,2) = 9.96	 
x(1,0) = 14.18	 x(1,1) = 8.15	 x(1,2) = 17.18	 
x(2,0) = 23.00	 x(2,1) = 8.67	 x(2,2) = 15.67	 
y(0,1,0) = 0.00	 y(1,0,0) = 1.00	 
y(0,2,0) = 0.00	 y(2,0,0) = 1.00	 
y(1,2,0) = 1.00	 y(2,1,0) = 0.00	 
y(0,1,1) = 0.98	 y(1,0,1) = 0.02	 
y(0,2,1) = 1.00	 y(2,0,1) = 0.00	 
y(1,2,1) = 0.85	 y(2,1,1) = 0.15	 
y(0,1,2) = 0.98	 y(1,0,2) = 0.02	 
y(0,2,2) = 0.92	 y(2,0,2) = 0.08	 
y(1,2,2) = 0.23	 y(2,1,2) = 0.77	 
obj:  1.0402669626117862
erro
[(1, 2), (2, 1), (1, 1), (2, 2), (0, 2)]
cliques:  0 mip: 24
C:  25.99999746103864
x(0,0) = 25.00	 x(0,1) = 1.67	 x(0,2) = 9.96	 
x(1,0) = 14.18	 x(1,1) = 8.15	 x(1,2) = 17.18	 
x(2,0) = 23.00	 x(2,1) = 8.67	 x(2,2) = 15.67	 
y(0,1,0) = 0.00	 y(1,0,0) = 1.00	 
y(0,2,0) = 0.00	 y(2,0,0) = 1.00	 
y(1,2,0) = 1.00	 y(2,1,0) = 0.00	 
y(0,1,1) = 0.98	 y(1,0,1) = 0.02	 
y(0,2,1) = 1.00	 y(2,0,1) = 0.00	 
y(1,2,1) = 0.85	 y(2,1,1) = 0.15	 
y(0,1,2) = 0.98	 y(1,0,2) = 0.02	 
y(0,2,2) = 0.92	 y(2,0,2) = 0.08	 
y(1,2,2) = 0.23	 y(2,1,2) = 0.77	 
obj:  1.0402669626117862
erro
[(1, 2), (2, 1), (1, 1), (2, 2), (0, 2)]
cliques:  0 mip: 24
C:  25.99999746103864
x(0,0) = 25.00	 x(0,1) = 1.67	 x(0,2) = 9.96	 
x(1,0) = 14.18	 x(1,1) = 8.15	 x(1,2) = 17.18	 
x(2,0) = 23.00	 x(2,1) = 8.67	 x(2,2) = 15.67	 
y(0,1,0) = 0.00	 y(1,0,0) = 1.00	 
y(0,2,0) = 0.00	 y(2,0,0) = 1.00	 
y(1,2,0) = 1.00	 y(2,1,0) = 0.00	 
y(0,1,1) = 0.98	 y(1,0,1) = 0.02	 
y(0,2,1) = 1.00	 y(2,0,1) = 0.00	 
y(1,2,1) = 0.85	 y(2,1,1) = 0.15	 
y(0,1,2) = 0.98	 y(1,0,2) = 0.02	 
y(0,2,2) = 0.92	 y(2,0,2) = 0.08	 
y(1,2,2) = 0.23	 y(2,1,2) = 0.77	 
obj:  1.0402669626117862
erro
[(1, 2), (2, 1), (1, 1), (2, 2), (0, 2)]
cliques:  0 mip: 24
C:  25.99999746103864
x(0,0) = 25.00	 x(0,1) = 1.67	 x(0,2) = 9.96	 
x(1,0) = 14.18	 x(1,1) = 8.15	 x(1,2) = 17.18	 
x(2,0) = 23.00	 x(2,1) = 8.67	 x(2,2) = 15.67	 
y(0,1,0) = 0.00	 y(1,0,0) = 1.00	 
y(0,2,0) = 0.00	 y(2,0,0) = 1.00	 
y(1,2,0) = 1.00	 y(2,1,0) = 0.00	 
y(0,1,1) = 0.98	 y(1,0,1) = 0.02	 
y(0,2,1) = 1.00	 y(2,0,1) = 0.00	 
y(1,2,1) = 0.85	 y(2,1,1) = 0.15	 
y(0,1,2) = 0.98	 y(1,0,2) = 0.02	 
y(0,2,2) = 0.92	 y(2,0,2) = 0.08	 
y(1,2,2) = 0.23	 y(2,1,2) = 0.77	 
obj:  1.0402669626117862
erro
[(1, 2), (2, 1), (1, 1), (2, 2), (0, 2)]
cliques:  0 mip: 24
C:  25.99999746103864
x(0,0) = 25.00	 x(0,1) = 1.67	 x(0,2) = 9.96	 
x(1,0) = 14.18	 x(1,1) = 8.15	 x(1,2) = 17.18	 
x(2,0) = 23.00	 x(2,1) = 8.67	 x(2,2) = 15.67	 
y(0,1,0) = 0.00	 y(1,0,0) = 1.00	 
y(0,2,0) = 0.00	 y(2,0,0) = 1.00	 
y(1,2,0) = 1.00	 y(2,1,0) = 0.00	 
y(0,1,1) = 0.98	 y(1,0,1) = 0.02	 
y(0,2,1) = 1.00	 y(2,0,1) = 0.00	 
y(1,2,1) = 0.85	 y(2,1,1) = 0.15	 
y(0,1,2) = 0.98	 y(1,0,2) = 0.02	 
y(0,2,2) = 0.92	 y(2,0,2) = 0.08	 
y(1,2,2) = 0.23	 y(2,1,2) = 0.77	 
obj:  1.0402669626117862
erro
[(1, 2), (2, 1), (1, 1), (2, 2), (0, 2)]
cliques:  0 mip: 24
C:  25.99999746103864
x(0,0) = 25.00	 x(0,1) = 1.67	 x(0,2) = 9.96	 
x(1,0) = 14.18	 x(1,1) = 8.15	 x(1,2) = 17.18	 
x(2,0) = 23.00	 x(2,1) = 8.67	 x(2,2) = 15.67	 
y(0,1,0) = 0.00	 y(1,0,0) = 1.00	 
y(0,2,0) = 0.00	 y(2,0,0) = 1.00	 
y(1,2,0) = 1.00	 y(2,1,0) = 0.00	 
y(0,1,1) = 0.98	 y(1,0,1) = 0.02	 
y(0,2,1) = 1.00	 y(2,0,1) = 0.00	 
y(1,2,1) = 0.85	 y(2,1,1) = 0.15	 
y(0,1,2) = 0.98	 y(1,0,2) = 0.02	 
y(0,2,2) = 0.92	 y(2,0,2) = 0.08	 
y(1,2,2) = 0.23	 y(2,1,2) = 0.77	 
obj:  1.0402669626117862
erro
[(1, 2), (2, 1), (1, 1), (2, 2), (0, 2)]
cliques:  0 mip: 24
C:  25.99999746103864
x(0,0) = 25.00	 x(0,1) = 1.67	 x(0,2) = 9.96	 
x(1,0) = 14.18	 x(1,1) = 8.15	 x(1,2) = 17.18	 
x(2,0) = 23.00	 x(2,1) = 8.67	 x(2,2) = 15.67	 
y(0,1,0) = 0.00	 y(1,0,0) = 1.00	 
y(0,2,0) = 0.00	 y(2,0,0) = 1.00	 
y(1,2,0) = 1.00	 y(2,1,0) = 0.00	 
y(0,1,1) = 0.98	 y(1,0,1) = 0.02	 
y(0,2,1) = 1.00	 y(2,0,1) = 0.00	 
y(1,2,1) = 0.85	 y(2,1,1) = 0.15	 
y(0,1,2) = 0.98	 y(1,0,2) = 0.02	 
y(0,2,2) = 0.92	 y(2,0,2) = 0.08	 
y(1,2,2) = 0.23	 y(2,1,2) = 0.77	 
obj:  1.0402669626117862
erro
[(1, 2), (2, 1), (1, 1), (2, 2), (0, 2)]
cliques:  0 mip: 24
C:  25.99999746103864
x(0,0) = 25.00	 x(0,1) = 1.67	 x(0,2) = 9.96	 
x(1,0) = 14.18	 x(1,1) = 8.15	 x(1,2) = 17.18	 
x(2,0) = 23.00	 x(2,1) = 8.67	 x(2,2) = 15.67	 
y(0,1,0) = 0.00	 y(1,0,0) = 1.00	 
y(0,2,0) = 0.00	 y(2,0,0) = 1.00	 
y(1,2,0) = 1.00	 y(2,1,0) = 0.00	 
y(0,1,1) = 0.98	 y(1,0,1) = 0.02	 
y(0,2,1) = 1.00	 y(2,0,1) = 0.00	 
y(1,2,1) = 0.85	 y(2,1,1) = 0.15	 
y(0,1,2) = 0.98	 y(1,0,2) = 0.02	 
y(0,2,2) = 0.92	 y(2,0,2) = 0.08	 
y(1,2,2) = 0.23	 y(2,1,2) = 0.77	 
obj:  1.0402669626117862
erro
[(1, 2), (2, 1), (1, 1), (2, 2), (0, 2)]
cliques:  0 mip: 24
C:  25.99999746103864
x(0,0) = 25.00	 x(0,1) = 1.67	 x(0,2) = 9.96	 
x(1,0) = 14.18	 x(1,1) = 8.15	 x(1,2) = 17.18	 
x(2,0) = 23.00	 x(2,1) = 8.67	 x(2,2) = 15.67	 
y(0,1,0) = 0.00	 y(1,0,0) = 1.00	 
y(0,2,0) = 0.00	 y(2,0,0) = 1.00	 
y(1,2,0) = 1.00	 y(2,1,0) = 0.00	 
y(0,1,1) = 0.98	 y(1,0,1) = 0.02	 
y(0,2,1) = 1.00	 y(2,0,1) = 0.00	 
y(1,2,1) = 0.85	 y(2,1,1) = 0.15	 
y(0,1,2) = 0.98	 y(1,0,2) = 0.02	 
y(0,2,2) = 0.92	 y(2,0,2) = 0.08	 
y(1,2,2) = 0.23	 y(2,1,2) = 0.77	 
obj:  1.0402669626117862
erro
[(1, 2), (2, 1), (1, 1), (2, 2), (0, 2)]
cliques:  0 mip: 24
C:  25.99999746103864
x(0,0) = 25.00	 x(0,1) = 1.67	 x(0,2) = 9.96	 
x(1,0) = 14.18	 x(1,1) = 8.15	 x(1,2) = 17.18	 
x(2,0) = 23.00	 x(2,1) = 8.67	 x(2,2) = 15.67	 
y(0,1,0) = 0.00	 y(1,0,0) = 1.00	 
y(0,2,0) = 0.00	 y(2,0,0) = 1.00	 
y(1,2,0) = 1.00	 y(2,1,0) = 0.00	 
y(0,1,1) = 0.98	 y(1,0,1) = 0.02	 
y(0,2,1) = 1.00	 y(2,0,1) = 0.00	 
y(1,2,1) = 0.85	 y(2,1,1) = 0.15	 
y(0,1,2) = 0.98	 y(1,0,2) = 0.02	 
y(0,2,2) = 0.92	 y(2,0,2) = 0.08	 
y(1,2,2) = 0.23	 y(2,1,2) = 0.77	 
obj:  1.0402669626117862
erro
[(1, 2), (2, 1), (1, 1), (2, 2), (0, 2)]
cliques:  0 mip: 24
C:  25.99999746103864
x(0,0) = 25.00	 x(0,1) = 1.67	 x(0,2) = 9.96	 
x(1,0) = 14.18	 x(1,1) = 8.15	 x(1,2) = 17.18	 
x(2,0) = 23.00	 x(2,1) = 8.67	 x(2,2) = 15.67	 
y(0,1,0) = 0.00	 y(1,0,0) = 1.00	 
y(0,2,0) = 0.00	 y(2,0,0) = 1.00	 
y(1,2,0) = 1.00	 y(2,1,0) = 0.00	 
y(0,1,1) = 0.98	 y(1,0,1) = 0.02	 
y(0,2,1) = 1.00	 y(2,0,1) = 0.00	 
y(1,2,1) = 0.85	 y(2,1,1) = 0.15	 
y(0,1,2) = 0.98	 y(1,0,2) = 0.02	 
y(0,2,2) = 0.92	 y(2,0,2) = 0.08	 
y(1,2,2) = 0.23	 y(2,1,2) = 0.77	 
obj:  1.0402669626117862
erro
[(1, 2), (2, 1), (1, 1), (2, 2), (0, 2)]
cliques:  0 mip: 24
C:  25.99999746103864
x(0,0) = 25.00	 x(0,1) = 1.67	 x(0,2) = 9.96	 
x(1,0) = 14.18	 x(1,1) = 8.15	 x(1,2) = 17.18	 
x(2,0) = 23.00	 x(2,1) = 8.67	 x(2,2) = 15.67	 
y(0,1,0) = 0.00	 y(1,0,0) = 1.00	 
y(0,2,0) = 0.00	 y(2,0,0) = 1.00	 
y(1,2,0) = 1.00	 y(2,1,0) = 0.00	 
y(0,1,1) = 0.98	 y(1,0,1) = 0.02	 
y(0,2,1) = 1.00	 y(2,0,1) = 0.00	 
y(1,2,1) = 0.85	 y(2,1,1) = 0.15	 
y(0,1,2) = 0.98	 y(1,0,2) = 0.02	 
y(0,2,2) = 0.92	 y(2,0,2) = 0.08	 
y(1,2,2) = 0.23	 y(2,1,2) = 0.77	 
obj:  1.0402669626117862
erro
[(1, 2), (2, 1), (1, 1), (2, 2), (0, 2)]
cliques:  0 mip: 24
C:  25.99999746103864
x(0,0) = 25.00	 x(0,1) = 1.67	 x(0,2) = 9.96	 
x(1,0) = 14.18	 x(1,1) = 8.15	 x(1,2) = 17.18	 
x(2,0) = 23.00	 x(2,1) = 8.67	 x(2,2) = 15.67	 
y(0,1,0) = 0.00	 y(1,0,0) = 1.00	 
y(0,2,0) = 0.00	 y(2,0,0) = 1.00	 
y(1,2,0) = 1.00	 y(2,1,0) = 0.00	 
y(0,1,1) = 0.98	 y(1,0,1) = 0.02	 
y(0,2,1) = 1.00	 y(2,0,1) = 0.00	 
y(1,2,1) = 0.85	 y(2,1,1) = 0.15	 
y(0,1,2) = 0.98	 y(1,0,2) = 0.02	 
y(0,2,2) = 0.92	 y(2,0,2) = 0.08	 
y(1,2,2) = 0.23	 y(2,1,2) = 0.77	 
obj:  1.0402669626117862
erro
[(1, 2), (2, 1), (1, 1), (2, 2), (0, 2)]
cliques:  0 mip: 24
C:  25.99999746103864
x(0,0) = 25.00	 x(0,1) = 1.67	 x(0,2) = 9.96	 
x(1,0) = 14.18	 x(1,1) = 8.15	 x(1,2) = 17.18	 
x(2,0) = 23.00	 x(2,1) = 8.67	 x(2,2) = 15.67	 
y(0,1,0) = 0.00	 y(1,0,0) = 1.00	 
y(0,2,0) = 0.00	 y(2,0,0) = 1.00	 
y(1,2,0) = 1.00	 y(2,1,0) = 0.00	 
y(0,1,1) = 0.98	 y(1,0,1) = 0.02	 
y(0,2,1) = 1.00	 y(2,0,1) = 0.00	 
y(1,2,1) = 0.85	 y(2,1,1) = 0.15	 
y(0,1,2) = 0.98	 y(1,0,2) = 0.02	 
y(0,2,2) = 0.92	 y(2,0,2) = 0.08	 
y(1,2,2) = 0.23	 y(2,1,2) = 0.77	 
obj:  1.0402669626117862
erro
[(1, 2), (2, 1), (1, 1), (2, 2), (0, 2)]
cliques:  0 mip: 0
iterações: 37 cortes cliques encontrados: 3 mip: 1017 objective:  25.99999746103864
Coin0506I Presolve 65 (-61) rows, 39 (-25) columns and 202 (-86) elements
Clp1000I sum of infeasibilities 3.24924e-06 - average 4.99884e-08, 0 fixed columns
Coin0506I Presolve 65 (0) rows, 39 (0) columns and 202 (0) elements
Clp0029I End of values pass after 39 iterations
Clp0000I Optimal - objective value 15
Clp0000I Optimal - objective value 15
Coin0511I After Postsolve, objective 15, infeasibilities - dual 0 (0), primal 0 (0)
Clp0000I Optimal - objective value 15
Clp0000I Optimal - objective value 15
Clp0000I Optimal - objective value 15
Coin0511I After Postsolve, objective 15, infeasibilities - dual 0 (0), primal 0 (0)
Clp0032I Optimal objective 15 - 0 iterations time 0.012, Presolve 0.00, Idiot 0.01
Coin3009W Conflict graph built in 0.000 seconds, density: 0.159%
